# Solution for model qis_1000_800_850
# Objective value = 3.0362675376763116e+02
x[0] 1
x[1] 1
x[2] 1
x[3] 0
x[4] 0
x[5] 0
x[6] 1
x[7] 1
x[8] 1
x[9] 1
x[10] 0
x[11] 1
x[12] 0
x[13] 1
x[14] 0
x[15] 1
x[16] 1.1296753164604094e-07
x[17] 1
x[18] 0
x[19] 0
x[20] 1
x[21] 0
x[22] 1
x[23] 0
x[24] 0
x[25] 1
x[26] 0
x[27] -4.4147176647690856e-07
x[28] 1
x[29] 1
x[30] 0
x[31] 0
x[32] 1
x[33] 0
x[34] 0
x[35] 1
x[36] 0
x[37] 0
x[38] 0
x[39] 1
x[40] 0
x[41] 9.9999958666666733e-01
x[42] 1
x[43] 1
x[44] 0
x[45] 0
x[46] 0
x[47] 0
x[48] 0
x[49] 1
x[50] 0
x[51] 1
x[52] 1
x[53] 0
x[54] 0
x[55] 1
x[56] 1
x[57] 0
x[58] 1
x[59] 1
x[60] 0
x[61] 0
x[62] 0
x[63] 0
x[64] 0
x[65] 1
x[66] 0
x[67] 0
x[68] 0
x[69] 0
x[70] 1
x[71] 1
x[72] 1
x[73] 0
x[74] 0
x[75] 1
x[76] 1
x[77] 0
x[78] 1
x[79] 0
x[80] 0
x[81] 0
x[82] 0
x[83] 1
x[84] 1
x[85] 0
x[86] 0
x[87] 0
x[88] 0
x[89] 0
x[90] 0
x[91] 0
x[92] 1
x[93] 1
x[94] 0
x[95] 1
x[96] 0
x[97] 1
x[98] 1
x[99] 1
x[100] 1
x[101] 1
x[102] 0
x[103] 0
x[104] 1
x[105] 1
x[106] 1
x[107] 0
x[108] 0
x[109] 0
x[110] 1
x[111] 0
x[112] 0
x[113] 1
x[114] 0
x[115] -3.8079972336415844e-07
x[116] 1
x[117] 0
x[118] 0
x[119] 0
x[120] 1
x[121] 0
x[122] 0
x[123] 1
x[124] 1
x[125] 1
x[126] 0
x[127] 0
x[128] 0
x[129] 0
x[130] 1
x[131] 0
x[132] 1
x[133] 1
x[134] 0
x[135] 1
x[136] 1
x[137] 1
x[138] 0
x[139] 0
x[140] 1
x[141] 1
x[142] 1
x[143] 1
x[144] 1
x[145] 1
x[146] 1
x[147] 0
x[148] 1
x[149] 0
x[150] 1
x[151] 0
x[152] 1
x[153] 0
x[154] 0
x[155] 1
x[156] 0
x[157] 0
x[158] 1
x[159] 1
x[160] 0
x[161] 0
x[162] 0
x[163] 0
x[164] 1
x[165] 0
x[166] 0
x[167] 1
x[168] 1
x[169] 1
x[170] 0
x[171] 0
x[172] 0
x[173] 1
x[174] 1
x[175] 0
x[176] 0
x[177] 1
x[178] 0
x[179] 0
x[180] 0
x[181] 0
x[182] 0
x[183] 1
x[184] 0
x[185] 1
x[186] 1
x[187] 1
x[188] 1
x[189] 1
x[190] 1
x[191] 1
x[192] 0
x[193] 0
x[194] 0
x[195] 1
x[196] 0
x[197] 0
x[198] 0
x[199] 0
x[200] 0
x[201] 4.1645118365588615e-07
x[202] 1
x[203] 1
x[204] 1
x[205] 0
x[206] 0
x[207] 1
x[208] 1
x[209] 0
x[210] 0
x[211] 0
x[212] 0
x[213] 1
x[214] 1
x[215] 0
x[216] 1
x[217] 0
x[218] 0
x[219] 0
x[220] 1
x[221] 0
x[222] 0
x[223] 1
x[224] 0
x[225] 1
x[226] 1
x[227] 1
x[228] 1
x[229] 0
x[230] 1
x[231] 1
x[232] 0
x[233] 1
x[234] 9.9999958666666722e-01
x[235] 1.0000003800313315e+00
x[236] 0
x[237] 1
x[238] 1
x[239] 0
x[240] 0
x[241] 1
x[242] 0
x[243] 1
x[244] 0
x[245] 0
x[246] 1
x[247] 1
x[248] 0
x[249] 1
x[250] 0
x[251] 0
x[252] 0
x[253] 1
x[254] 1
x[255] 0
x[256] 0
x[257] 1
x[258] 0
x[259] 0
x[260] 1
x[261] 0
x[262] 0
x[263] 1
x[264] 1
x[265] 0
x[266] 1
x[267] 1
x[268] 0
x[269] 1
x[270] 9.8778600413011325e-08
x[271] 0
x[272] 0
x[273] 0
x[274] 0
x[275] 0
x[276] 0
x[277] 0
x[278] 1
x[279] 0
x[280] 1
x[281] 1
x[282] 0
x[283] 1
x[284] 1
x[285] -8.2999999942802967e-07
x[286] 0
x[287] 1
x[288] 8.0586803324501954e-08
x[289] 0
x[290] 0
x[291] 0
x[292] 1
x[293] 1
x[294] 0
x[295] 9.9999916666666744e-01
x[296] 1
x[297] 0
x[298] 0
x[299] 0
x[300] 0
x[301] 0
x[302] 0
x[303] 1
x[304] 0
x[305] 0
x[306] 0
x[307] 1
x[308] 1
x[309] 1
x[310] 0
x[311] 1
x[312] 0
x[313] 0
x[314] 0
x[315] 0
x[316] 0
x[317] 1
x[318] 1
x[319] 0
x[320] 0
x[321] 1
x[322] 4.1642595473869533e-07
x[323] 1
x[324] 0
x[325] 1
x[326] 1
x[327] 1
x[328] 1
x[329] -8.2999999945777768e-07
x[330] 0
x[331] 1
x[332] 1
x[333] 1
x[334] 1
x[335] 1
x[336] 0
x[337] 1
x[338] 0
x[339] 1
x[340] 0
x[341] 0
x[342] 0
x[343] 0
x[344] 0
x[345] 1
x[346] 0
x[347] 1
x[348] 1
x[349] 0
x[350] 1
x[351] 1
x[352] 1
x[353] 1
x[354] 0
x[355] 1
x[356] 1
x[357] 0
x[358] 0
x[359] 0
x[360] 1
x[361] 1
x[362] 1
x[363] 0
x[364] 1
x[365] 8.3323465597762357e-07
x[366] 1
x[367] 1
x[368] 1
x[369] 1
x[370] 1
x[371] 0
x[372] 1
x[373] 0
x[374] 1
x[375] 0
x[376] 0
x[377] 0
x[378] 0
x[379] 0
x[380] 1
x[381] 0
x[382] 1
x[383] 0
x[384] 0
x[385] 1
x[386] 1
x[387] 0
x[388] 0
x[389] 0
x[390] 0
x[391] 1
x[392] 0
x[393] 1
x[394] 1
x[395] 1
x[396] 0
x[397] 0
x[398] 1
x[399] 1
x[400] 0
x[401] 0
x[402] 0
x[403] 0
x[404] 1
x[405] 1
x[406] 0
x[407] 0
x[408] 1
x[409] 1
x[410] 0
x[411] 1
x[412] 1
x[413] 0
x[414] 1
x[415] 0
x[416] 0
x[417] 1
x[418] 1
x[419] 0
x[420] 0.999999170000001
x[421] 0
x[422] 0
x[423] 0
x[424] 0
x[425] 1
x[426] 0
x[427] 1
x[428] 0
x[429] 0
x[430] 1
x[431] 1
x[432] 0
x[433] 0
x[434] 9.9999979500000080e-01
x[435] 0
x[436] 1
x[437] 0
x[438] 0
x[439] 0
x[440] 1
x[441] 0
x[442] 1
x[443] 1
x[444] 0
x[445] 1
x[446] 1
x[447] 0
x[448] 1
x[449] 0
x[450] 0
x[451] 1.0000004413407217e+00
x[452] 0
x[453] 0
x[454] 1
x[455] 1
x[456] 4.1629143146877009e-07
x[457] 1
x[458] 1.0000008331528925e+00
x[459] 1.0000001259920883e+00
x[460] 0
x[461] 1
x[462] 1
x[463] 1
x[464] 1
x[465] 0
x[466] 4.1656646313174985e-07
x[467] 0
x[468] 0
x[469] 0
x[470] 1
x[471] 0
x[472] 0
x[473] 1
x[474] 1
x[475] 0
x[476] 0
x[477] 0
x[478] 0
x[479] 0
x[480] 1
x[481] 1
x[482] 1
x[483] 9.9999917000000027e-01
x[484] 0
x[485] 0
x[486] 0
x[487] 1
x[488] 0
x[489] 1
x[490] 1
x[491] 1
x[492] 0
x[493] 1
x[494] 0
x[495] 1
x[496] 0
x[497] 1
x[498] 1
x[499] 0
x[500] 0
x[501] 1
x[502] 1
x[503] 1
x[504] 1
x[505] 1
x[506] 1
x[507] 0
x[508] 0
x[509] 0
x[510] 1
x[511] 0
x[512] 0
x[513] 0
x[514] 1.0000008332267623e+00
x[515] 0
x[516] 0
x[517] 9.9999987719854322e-01
x[518] 1
x[519] 1
x[520] 1
x[521] 1
x[522] 8.3320375891466132e-07
x[523] 0
x[524] 1
x[525] 1
x[526] 0
x[527] 1
x[528] 0
x[529] 0
x[530] 1
x[531] 0
x[532] 0
x[533] 1
x[534] 0
x[535] 0
x[536] 1
x[537] 0
x[538] 0
x[539] 1
x[540] 1
x[541] 0
x[542] 1
x[543] 0
x[544] 1
x[545] 1
x[546] 1
x[547] 1
x[548] 0
x[549] 0
x[550] 0
x[551] 1
x[552] 0
x[553] 0
x[554] 1
x[555] 0
x[556] 0
x[557] 0
x[558] 1
x[559] 0
x[560] 0
x[561] -3.7746639000605077e-07
x[562] 1
x[563] 0
x[564] 1
x[565] 1
x[566] 1
x[567] 1
x[568] 1
x[569] 0
x[570] 1
x[571] 1
x[572] 1
x[573] 0
x[574] 1
x[575] 0
x[576] 1
x[577] 1
x[578] 1
x[579] 0
x[580] 1
x[581] 1
x[582] 1
x[583] 0
x[584] 1
x[585] 0
x[586] 0
x[587] 0
x[588] 1
x[589] 0
x[590] 0
x[591] 1
x[592] 0
x[593] 0
x[594] 9.9999999999999989e-01
x[595] 1
x[596] 1
x[597] 1
x[598] 0
x[599] 1
x[600] 0
x[601] 1
x[602] 1
x[603] 1
x[604] 0
x[605] 1
x[606] 4.1638744080378494e-07
x[607] 0
x[608] 0
x[609] 1
x[610] 0
x[611] 0
x[612] 1
x[613] 0
x[614] 0
x[615] 0
x[616] 1
x[617] 9.9999958854881632e-01
x[618] 1
x[619] 0
x[620] 9.9999999999999978e-01
x[621] 0
x[622] 0
x[623] 1
x[624] 0
x[625] 0
x[626] 0
x[627] 0
x[628] 1
x[629] 0
x[630] 0
x[631] 1
x[632] 0
x[633] 0
x[634] 1
x[635] 1
x[636] 0
x[637] 0
x[638] 0
x[639] 0
x[640] 1
x[641] 0
x[642] 0
x[643] 0
x[644] 1
x[645] 0
x[646] 0
x[647] 0
x[648] 1
x[649] 1
x[650] 1
x[651] 1
x[652] 0
x[653] 1
x[654] 1
x[655] 0
x[656] 1
x[657] 1
x[658] 0
x[659] 1
x[660] 1
x[661] 1
x[662] 0
x[663] 1
x[664] 0
x[665] 1
x[666] 1
x[667] 1
x[668] 1
x[669] 1
x[670] 1
x[671] 0
x[672] 1
x[673] 0
x[674] 1
x[675] 0
x[676] 0
x[677] 1
x[678] 0
x[679] 0
x[680] 0
x[681] 9.9999917000000083e-01
x[682] 1
x[683] 0
x[684] 0
x[685] 9.9999958666666722e-01
x[686] 1
x[687] 0
x[688] 1
x[689] 1
x[690] 0
x[691] 0
x[692] 0
x[693] 0
x[694] 0
x[695] 1
x[696] 0
x[697] 0
x[698] 1
x[699] 0
x[700] 1
x[701] 0
x[702] 1
x[703] 1
x[704] 1
x[705] 0
x[706] 0
x[707] 1
x[708] 0
x[709] 1
x[710] 1
x[711] 0
x[712] 0
x[713] 1
x[714] 0
x[715] 1
x[716] 0
x[717] 0
x[718] 1
x[719] 0
x[720] 1
x[721] 1
x[722] 1
x[723] 1
x[724] 0
x[725] 0
x[726] 0
x[727] 0
x[728] 1
x[729] 0
x[730] 0
x[731] 1
x[732] 0
x[733] 0
x[734] 0
x[735] 1
x[736] 0
x[737] 0
x[738] 1
x[739] 1
x[740] 1
x[741] 0
x[742] 1
x[743] 1
x[744] 9.9999958666666733e-01
x[745] 0
x[746] 1
x[747] 0
x[748] 1
x[749] 1
x[750] 0
x[751] 1
x[752] 1
x[753] 1
x[754] 0
x[755] 0
x[756] 0
x[757] 1
x[758] 1
x[759] 0
x[760] 0
x[761] 0
x[762] 1
x[763] 0
x[764] 1
x[765] 1
x[766] 0
x[767] 1
x[768] 0
x[769] 1
x[770] 0
x[771] 0
x[772] 0
x[773] 1
x[774] 1
x[775] 1
x[776] 0
x[777] 1
x[778] 0
x[779] 0
x[780] 8.3272905449990659e-07
x[781] 1
x[782] 0
x[783] 1.0000003806803845e+00
x[784] 0
x[785] 1
x[786] 0
x[787] 1
x[788] 0
x[789] 0
x[790] 0
x[791] 0
x[792] 0
x[793] 0
x[794] 0
x[795] 0
x[796] 0
x[797] 1
x[798] 1
x[799] 1
x[800] 1
x[801] 1
x[802] 1
x[803] 1
x[804] 1
x[805] 0
x[806] 1
x[807] 0
x[808] 0
x[809] 0
x[810] 0
x[811] 0
x[812] 1
x[813] 0
x[814] 0
x[815] 1
x[816] 1
x[817] 1
x[818] 1
x[819] 1
x[820] 1
x[821] 0
x[822] 1
x[823] 1.0000003805808440e+00
x[824] 1
x[825] 0
x[826] 9.9999999999999978e-01
x[827] 1
x[828] 0
x[829] 0
x[830] 0
x[831] 1
x[832] 0
x[833] 1
x[834] 1
x[835] 0
x[836] 1
x[837] 0
x[838] 1
x[839] 1
x[840] 1
x[841] 0
x[842] 1
x[843] 0
x[844] 1
x[845] 1
x[846] 8.3318673986306208e-07
x[847] 1
x[848] 1
x[849] 0
x[850] 1
x[851] 1
x[852] 1
x[853] 1
x[854] 0
x[855] 0
x[856] 0
x[857] 1
x[858] 1
x[859] 1
x[860] 1
x[861] 0
x[862] 9.9999999999999933e-01
x[863] 9.9999955314009725e-01
x[864] 0
x[865] 0
x[866] 0
x[867] 0
x[868] 1
x[869] 1.0000002205761187e+00
x[870] 0
x[871] 1
x[872] 0
x[873] 1
x[874] 1
x[875] 1
x[876] 0
x[877] 1
x[878] 1
x[879] 0
x[880] 0
x[881] 0
x[882] 0
x[883] 0
x[884] 1
x[885] 0
x[886] 0
x[887] 0
x[888] 1
x[889] 0
x[890] 0
x[891] 1
x[892] 0
x[893] 1
x[894] 1
x[895] 1
x[896] 1
x[897] 1
x[898] 1
x[899] 1
x[900] 0
x[901] 0
x[902] 1
x[903] 1
x[904] 1
x[905] 0
x[906] 0
x[907] 1
x[908] 1
x[909] 1
x[910] 1
x[911] 0
x[912] 0
x[913] 0
x[914] 1
x[915] 0
x[916] 0
x[917] 1.0000008331275665e+00
x[918] 1
x[919] 1
x[920] 0
x[921] 0
x[922] 0
x[923] 0
x[924] 1
x[925] 1
x[926] 0
x[927] 0
x[928] 0
x[929] 0
x[930] 1
x[931] 1
x[932] 1
x[933] 0
x[934] 1
x[935] 1
x[936] 0
x[937] 1
x[938] 0
x[939] 0
x[940] 1
x[941] 1
x[942] 1
x[943] 1
x[944] 1
x[945] 0
x[946] 0
x[947] 0
x[948] 0
x[949] 1
x[950] 1
x[951] 0
x[952] 1
x[953] 0
x[954] 0
x[955] 0
x[956] 0
x[957] 1
x[958] 1
x[959] 0
x[960] 0
x[961] 1
x[962] 1
x[963] 1
x[964] 0
x[965] 1
x[966] 0
x[967] 1
x[968] 1
x[969] 1
x[970] 0
x[971] 0
x[972] 1
x[973] 1
x[974] 0
x[975] 0
x[976] 0
x[977] 1
x[978] 1
x[979] 1
x[980] 0
x[981] 0
x[982] 0
x[983] 1
x[984] 0
x[985] 0
x[986] 0
x[987] 0
x[988] 9.9999979166666675e-01
x[989] 1
x[990] 0
x[991] -3.8079972327243726e-07
x[992] 0
x[993] 1
x[994] 0
x[995] 1
x[996] 0
x[997] 0
x[998] 1
x[999] 0
